n_machines = 5;
n_resources = 10;
n_jobs = 100;
horizon = 51472;
LB = 10294;
n_jobs_per_resource = [10, 10, 10, 10, 10, 10, 10, 10, 10, 10];
duration = [845, 901, 965, 887, 135, 568, 864, 596, 122, 755, 115, 62, 411, 568, 493, 664, 935, 969, 882, 34, 54, 990, 382, 963, 939, 930, 540, 518, 328, 267, 117, 203, 790, 796, 229, 752, 218, 24, 511, 596, 83, 389, 784, 505, 783, 675, 145, 291, 589, 352, 118, 233, 774, 321, 83, 423, 469, 359, 406, 837, 541, 267, 792, 624, 546, 719, 701, 131, 31, 267, 828, 602, 126, 73, 696, 122, 959, 446, 972, 832, 952, 397, 69, 589, 170, 385, 225, 627, 612, 670, 781, 870, 697, 309, 964, 969, 244, 234, 564, 332]